RSW04
Position Depot: Random
Horizon for Depot: Small
Position of customers: Random
Distribution of the demand: Medium
Width of time windows: Wide
Distribution of the service: Large

VEHICLE 
NUMBER 	 CAPACITY 
 5 	 	 350 
 
CUSTOMER
CUST NO. 	 XCOORD.  	 YCOORD. 	 DEMAND 	 READY TIME 	 DUE DATE 	 SERVICE TIME 
 0 	 	 950 	 	 872 	 	 0 	 	 0 	 	 1877 	 	 0 
  1 	 	 666 	 	 298 	 	 50 	 	 1371 	 	 1869 	 	 167 
  2 	 	 556 	 	 410 	 	 75 	 	 972 	 	 1462 	 	 175 
  3 	 	 642 	 	 891 	 	 3 	 	 377 	 	 761 	 	 105 
  4 	 	 793 	 	 823 	 	 7 	 	 1183 	 	 1421 	 	 158 
  5 	 	 874 	 	 977 	 	 1 	 	 182 	 	 453 	 	 158 
  6 	 	 963 	 	 176 	 	 59 	 	 1589 	 	 1877 	 	 172 
  7 	 	 143 	 	 321 	 	 65 	 	 1114 	 	 1377 	 	 146 
  8 	 	 258 	 	 113 	 	 61 	 	 902 	 	 1129 	 	 179 
  9 	 	 913 	 	 778 	 	 1 	 	 478 	 	 750 	 	 169 
  10 	 	 6 	 	 704 	 	 8 	 	 634 	 	 1054 	 	 101 
  11 	 	 125 	 	 184 	 	 1 	 	 737 	 	 1181 	 	 177 
  12 	 	 460 	 	 801 	 	 8 	 	 1011 	 	 1262 	 	 165 
  13 	 	 810 	 	 699 	 	 10 	 	 351 	 	 665 	 	 139 
  14 	 	 781 	 	 564 	 	 1 	 	 359 	 	 854 	 	 191 
  15 	 	 493 	 	 448 	 	 7 	 	 1539 	 	 1814 	 	 122 
  16 	 	 827 	 	 179 	 	 4 	 	 921 	 	 1123 	 	 112 
  17 	 	 351 	 	 757 	 	 51 	 	 1414 	 	 1877 	 	 140 
  18 	 	 639 	 	 683 	 	 3 	 	 176 	 	 645 	 	 144 
  19 	 	 215 	 	 748 	 	 71 	 	 407 	 	 819 	 	 156 
  20 	 	 711 	 	 173 	 	 6 	 	 1407 	 	 1762 	 	 133 
  21 	 	 199 	 	 990 	 	 100 	 	 594 	 	 853 	 	 145 
  22 	 	 628 	 	 675 	 	 10 	 	 131 	 	 472 	 	 122 
  23 	 	 964 	 	 540 	 	 10 	 	 343 	 	 657 	 	 180 
  24 	 	 476 	 	 211 	 	 5 	 	 1222 	 	 1560 	 	 183 
  25 	 	 684 	 	 503 	 	 3 	 	 576 	 	 934 	 	 100 
  26 	 	 670 	 	 12 	 	 7 	 	 1342 	 	 1751 	 	 136 
  27 	 	 716 	 	 962 	 	 59 	 	 1612 	 	 1877 	 	 187 
  28 	 	 584 	 	 119 	 	 10 	 	 1149 	 	 1394 	 	 197 
  29 	 	 106 	 	 835 	 	 6 	 	 1606 	 	 1834 	 	 128 
  30 	 	 984 	 	 378 	 	 9 	 	 306 	 	 730 	 	 149 
  31 	 	 862 	 	 669 	 	 96 	 	 903 	 	 1279 	 	 196 
  32 	 	 776 	 	 470 	 	 7 	 	 98 	 	 481 	 	 174 
  33 	 	 916 	 	 649 	 	 8 	 	 449 	 	 708 	 	 154 
  34 	 	 795 	 	 295 	 	 8 	 	 668 	 	 1103 	 	 118 
  35 	 	 193 	 	 809 	 	 73 	 	 1073 	 	 1369 	 	 151 
  36 	 	 143 	 	 530 	 	 3 	 	 949 	 	 1203 	 	 109 
  37 	 	 649 	 	 637 	 	 4 	 	 -28 	 	 420 	 	 200 
  38 	 	 320 	 	 481 	 	 76 	 	 446 	 	 815 	 	 192 
  39 	 	 249 	 	 863 	 	 5 	 	 1600 	 	 1843 	 	 103 
  40 	 	 35 	 	 5 	 	 8 	 	 1023 	 	 1386 	 	 140 
  41 	 	 619 	 	 329 	 	 5 	 	 1482 	 	 1817 	 	 181 
  42 	 	 792 	 	 806 	 	 10 	 	 641 	 	 1003 	 	 160 
  43 	 	 659 	 	 329 	 	 5 	 	 333 	 	 677 	 	 154 
  44 	 	 17 	 	 553 	 	 4 	 	 835 	 	 1084 	 	 192 
  45 	 	 548 	 	 595 	 	 5 	 	 559 	 	 809 	 	 113 
  46 	 	 365 	 	 430 	 	 8 	 	 688 	 	 1085 	 	 104 
  47 	 	 632 	 	 991 	 	 84 	 	 593 	 	 796 	 	 114 
  48 	 	 194 	 	 397 	 	 5 	 	 768 	 	 1190 	 	 187 
  49 	 	 368 	 	 404 	 	 7 	 	 470 	 	 821 	 	 161 
  50 	 	 298 	 	 497 	 	 2 	 	 356 	 	 827 	 	 150 
  51 	 	 780 	 	 182 	 	 3 	 	 362 	 	 781 	 	 166 
  52 	 	 941 	 	 17 	 	 7 	 	 1015 	 	 1308 	 	 166 
  53 	 	 832 	 	 93 	 	 53 	 	 478 	 	 866 	 	 142 
  54 	 	 113 	 	 145 	 	 1 	 	 935 	 	 1219 	 	 162 
  55 	 	 991 	 	 289 	 	 5 	 	 1377 	 	 1865 	 	 133 
  56 	 	 464 	 	 47 	 	 2 	 	 772 	 	 1199 	 	 161 
  57 	 	 49 	 	 373 	 	 6 	 	 756 	 	 1132 	 	 125 
  58 	 	 707 	 	 832 	 	 54 	 	 1638 	 	 1877 	 	 139 
  59 	 	 871 	 	 416 	 	 5 	 	 1170 	 	 1634 	 	 185 
  60 	 	 276 	 	 126 	 	 2 	 	 835 	 	 1105 	 	 122 
  61 	 	 574 	 	 895 	 	 6 	 	 316 	 	 660 	 	 111 
  62 	 	 773 	 	 777 	 	 6 	 	 1341 	 	 1767 	 	 127 
  63 	 	 405 	 	 48 	 	 1 	 	 792 	 	 1086 	 	 196 
  64 	 	 290 	 	 799 	 	 7 	 	 441 	 	 745 	 	 138 
  65 	 	 717 	 	 776 	 	 8 	 	 1532 	 	 1877 	 	 185 
  66 	 	 263 	 	 748 	 	 4 	 	 1432 	 	 1740 	 	 126 
  67 	 	 306 	 	 391 	 	 1 	 	 1012 	 	 1269 	 	 147 
  68 	 	 396 	 	 354 	 	 4 	 	 1257 	 	 1491 	 	 194 
  69 	 	 35 	 	 234 	 	 9 	 	 1292 	 	 1683 	 	 200 
  70 	 	 423 	 	 717 	 	 6 	 	 1398 	 	 1877 	 	 138 
  71 	 	 59 	 	 776 	 	 8 	 	 1146 	 	 1538 	 	 176 
  72 	 	 578 	 	 398 	 	 9 	 	 1535 	 	 1877 	 	 104 
  73 	 	 539 	 	 794 	 	 5 	 	 1647 	 	 1877 	 	 193 
  74 	 	 389 	 	 696 	 	 8 	 	 372 	 	 767 	 	 138 
  75 	 	 98 	 	 944 	 	 9 	 	 1249 	 	 1545 	 	 121 
  76 	 	 958 	 	 887 	 	 78 	 	 429 	 	 637 	 	 196 
  77 	 	 435 	 	 572 	 	 3 	 	 539 	 	 766 	 	 124 
  78 	 	 825 	 	 961 	 	 8 	 	 247 	 	 691 	 	 171 
  79 	 	 674 	 	 908 	 	 6 	 	 1250 	 	 1671 	 	 121 
  80 	 	 733 	 	 602 	 	 6 	 	 36 	 	 405 	 	 108 
  81 	 	 216 	 	 51 	 	 2 	 	 726 	 	 1211 	 	 142 
  82 	 	 635 	 	 817 	 	 7 	 	 533 	 	 738 	 	 199 
  83 	 	 790 	 	 467 	 	 8 	 	 900 	 	 1339 	 	 180 
  84 	 	 489 	 	 686 	 	 78 	 	 1471 	 	 1877 	 	 192 
  85 	 	 82 	 	 39 	 	 6 	 	 1194 	 	 1460 	 	 141 
  86 	 	 498 	 	 851 	 	 6 	 	 266 	 	 497 	 	 144 
  87 	 	 255 	 	 209 	 	 7 	 	 587 	 	 1056 	 	 194 
  88 	 	 413 	 	 667 	 	 52 	 	 409 	 	 632 	 	 197 
  89 	 	 215 	 	 875 	 	 64 	 	 1016 	 	 1413 	 	 194 
  90 	 	 633 	 	 329 	 	 8 	 	 1043 	 	 1431 	 	 104 
  91 	 	 828 	 	 41 	 	 10 	 	 646 	 	 923 	 	 106 
  92 	 	 982 	 	 27 	 	 1 	 	 1465 	 	 1874 	 	 198 
  93 	 	 913 	 	 324 	 	 4 	 	 889 	 	 1357 	 	 130 
  94 	 	 202 	 	 474 	 	 8 	 	 726 	 	 932 	 	 106 
  95 	 	 789 	 	 916 	 	 4 	 	 428 	 	 753 	 	 134 
  96 	 	 326 	 	 887 	 	 10 	 	 1168 	 	 1545 	 	 109 
  97 	 	 269 	 	 551 	 	 7 	 	 331 	 	 828 	 	 155 
  98 	 	 149 	 	 578 	 	 1 	 	 544 	 	 938 	 	 108 
  99 	 	 704 	 	 445 	 	 87 	 	 80 	 	 542 	 	 163 
  100 	 	 242 	 	 491 	 	 3 	 	 394 	 	 884 	 	 185 
 